3 
4  51 
5  08 23 38 53 
6  07 21 33 47 
7  03 18 33 48 
8  03 18 33 48 
9  03 18 33 48 
10  03 18 33 48 
11  03 18 33 48 
12  03 18 33 47 
13  02 17 32 47 
14  02 17 32 47 
15  02 17 32 47 
16  02 17 32 47 
17  02 17 32 47 
18  02 17 32 47 
19  02 19 34 49 
20  04 19 33 48 
21  03 18 33 48 
22  03 18 33 
23 
